Minimize
	value: tt

Subject to
tt + 1000 s_1_1 > 0.0
tt - t_1_1 - 1001.401072 s_1_1  + 0.700536 s_1_8  + 0.700536 s_1_7  > -999.012106
tt + 1000 s_2_1 > 0.0
tt - t_2_1 - 1001.452650 s_2_1  + 0.726325 s_2_8  + 0.726325 s_2_7  > -992.204964
tt + 1000 s_1_2 > 0.0
tt - t_1_2 - 1000.700536 s_1_2  + 0.700536 s_1_7  > -999.031100
tt + 1000 s_2_2 > 0.0
tt - t_2_2 - 1000.726325 s_2_2  + 0.726325 s_2_7  > -991.965682
tt + 1000 s_1_3 > 0.0
tt - t_1_3 - 1001.401072 s_1_3  + 0.700536 s_1_8  + 0.700536 s_1_7  > -999.909600
tt + 1000 s_2_3 > 0.0
tt - t_2_3 - 1001.452650 s_2_3  + 0.726325 s_2_8  + 0.726325 s_2_7  > -998.871938
tt + 1000 s_1_4 > 0.0
tt - t_1_4 - 1000.700536 s_1_4  + 0.700536 s_1_7  > -999.877878
tt + 1000 s_2_4 > 0.0
tt - t_2_4 - 1000.726325 s_2_4  + 0.726325 s_2_7  > -998.466065
tt + 1000 s_1_5 > 0.0
tt - t_1_5 - 1000.700536 s_1_5  + 0.700536 s_1_8  > -999.567900
tt + 1000 s_2_5 > 0.0
tt - t_2_5 - 1000.726325 s_2_5  + 0.726325 s_2_8  > -996.114083
tt + 1000 s_1_6 > 0.0
tt - t_1_6 - 1004.203216 s_1_6  + 0.700536 s_1_5  + 0.700536 s_1_1  + 0.700536 s_1_7  + 0.700536 s_1_3  + 0.700536 s_1_4  + 0.700536 s_1_2  > -999.935000
tt + 1000 s_2_6 > 0.0
tt - t_2_6 - 1004.357949 s_2_6  + 0.726325 s_2_5  + 0.726325 s_2_1  + 0.726325 s_2_7  + 0.726325 s_2_3  + 0.726325 s_2_4  + 0.726325 s_2_2  > -998.992500
tt + 1000 s_1_7 > 0.0
tt - t_1_7 - 1000.000000 s_1_7  > -996.930600
tt + 1000 s_2_7 > 0.0
tt - t_2_7 - 1000.000000 s_2_7  > -985.913597
tt + 1000 s_1_8 > 0.0
tt - t_1_8 - 1000.000000 s_1_8  > -998.981444
tt + 1000 s_2_8 > 0.0
tt - t_2_8 - 1000.000000 s_2_8  > -997.426619
s_1_1 + s_2_1 = 1
s_1_2 + s_2_2 = 1
s_1_3 + s_2_3 = 1
s_1_4 + s_2_4 = 1
s_1_5 + s_2_5 = 1
s_1_6 + s_2_6 = 1
s_1_7 + s_2_7 = 1
s_1_8 + s_2_8 = 1
s_1_1 + s_1_2 + 1000 r_1_1_2 >= 2
- s_1_1 - s_1_2 - 1000 r_1_1_2 >= -1001
t_1_1 - t_1_2 - 1000.000000 u_1_1_2 - 0.700536 s_1_2  + 0.700536 s_1_7  + 2000.000000 r_1_1_2 > -999.031100
s_2_1 + s_2_2 + 1000 r_2_1_2 >= 2
- s_2_1 - s_2_2 - 1000 r_2_1_2 >= -1001
t_2_1 - t_2_2 - 1000.000000 u_2_1_2 - 0.726325 s_2_2  + 0.726325 s_2_7  + 2000.000000 r_2_1_2 > -991.965682
s_1_1 + s_1_3 + 1000 r_1_1_3 >= 2
- s_1_1 - s_1_3 - 1000 r_1_1_3 >= -1001
t_1_1 - t_1_3 - 1000.000000 u_1_1_3 - 1.401072 s_1_3  + 0.700536 s_1_8  + 0.700536 s_1_7  + 2000.000000 r_1_1_3 > -999.909600
s_2_1 + s_2_3 + 1000 r_2_1_3 >= 2
- s_2_1 - s_2_3 - 1000 r_2_1_3 >= -1001
t_2_1 - t_2_3 - 1000.000000 u_2_1_3 - 1.452650 s_2_3  + 0.726325 s_2_8  + 0.726325 s_2_7  + 2000.000000 r_2_1_3 > -998.871938
s_1_1 + s_1_4 + 1000 r_1_1_4 >= 2
- s_1_1 - s_1_4 - 1000 r_1_1_4 >= -1001
t_1_1 - t_1_4 - 1000.000000 u_1_1_4 - 0.700536 s_1_4  + 0.700536 s_1_7  + 2000.000000 r_1_1_4 > -999.877878
s_2_1 + s_2_4 + 1000 r_2_1_4 >= 2
- s_2_1 - s_2_4 - 1000 r_2_1_4 >= -1001
t_2_1 - t_2_4 - 1000.000000 u_2_1_4 - 0.726325 s_2_4  + 0.726325 s_2_7  + 2000.000000 r_2_1_4 > -998.466065
s_1_1 + s_1_5 + 1000 r_1_1_5 >= 2
- s_1_1 - s_1_5 - 1000 r_1_1_5 >= -1001
t_1_1 - t_1_5 - 1000.000000 u_1_1_5 - 0.700536 s_1_5  + 0.700536 s_1_8  + 2000.000000 r_1_1_5 > -999.567900
s_2_1 + s_2_5 + 1000 r_2_1_5 >= 2
- s_2_1 - s_2_5 - 1000 r_2_1_5 >= -1001
t_2_1 - t_2_5 - 1000.000000 u_2_1_5 - 0.726325 s_2_5  + 0.726325 s_2_8  + 2000.000000 r_2_1_5 > -996.114083
t_1_6 - t_1_1 - 1001.401072 s_1_1  + 0.700536 s_1_8  + 0.700536 s_1_7  > -999.012106
t_1_6 - t_2_1 - 1001.452650 s_2_1  + 0.726325 s_2_8  + 0.726325 s_2_7  > -992.204964
t_2_6 - t_1_1 - 1001.401072 s_1_1  + 0.700536 s_1_8  + 0.700536 s_1_7  > -999.012106
t_2_6 - t_2_1 - 1001.452650 s_2_1  + 0.726325 s_2_8  + 0.726325 s_2_7  > -992.204964
t_1_1 - t_1_7 - 1000.000000 s_1_7  > -996.930600
t_1_1 - t_2_7 - 1000.000000 s_2_7  > -985.913597
t_2_1 - t_1_7 - 1000.000000 s_1_7  > -996.930600
t_2_1 - t_2_7 - 1000.000000 s_2_7  > -985.913597
t_1_1 - t_1_8 - 1000.000000 s_1_8  > -998.981444
t_1_1 - t_2_8 - 1000.000000 s_2_8  > -997.426619
t_2_1 - t_1_8 - 1000.000000 s_1_8  > -998.981444
t_2_1 - t_2_8 - 1000.000000 s_2_8  > -997.426619
s_1_2 + s_1_1 + 1000 r_1_1_2 >= 2
- s_1_2 - s_1_1 - 1000 r_1_1_2 >= -1001
t_1_2 - t_1_1 + 1000.000000 u_1_1_2 - 1.401072 s_1_1  + 0.700536 s_1_8  + 0.700536 s_1_7  + 2000.000000 r_1_1_2 > 0.987894
s_2_2 + s_2_1 + 1000 r_2_1_2 >= 2
- s_2_2 - s_2_1 - 1000 r_2_1_2 >= -1001
t_2_2 - t_2_1 + 1000.000000 u_2_1_2 - 1.452650 s_2_1  + 0.726325 s_2_8  + 0.726325 s_2_7  + 2000.000000 r_2_1_2 > 7.795036
s_1_2 + s_1_3 + 1000 r_1_2_3 >= 2
- s_1_2 - s_1_3 - 1000 r_1_2_3 >= -1001
t_1_2 - t_1_3 - 1000.000000 u_1_2_3 - 1.401072 s_1_3  + 0.700536 s_1_8  + 0.700536 s_1_7  + 2000.000000 r_1_2_3 > -999.909600
s_2_2 + s_2_3 + 1000 r_2_2_3 >= 2
- s_2_2 - s_2_3 - 1000 r_2_2_3 >= -1001
t_2_2 - t_2_3 - 1000.000000 u_2_2_3 - 1.452650 s_2_3  + 0.726325 s_2_8  + 0.726325 s_2_7  + 2000.000000 r_2_2_3 > -998.871938
s_1_2 + s_1_4 + 1000 r_1_2_4 >= 2
- s_1_2 - s_1_4 - 1000 r_1_2_4 >= -1001
t_1_2 - t_1_4 - 1000.000000 u_1_2_4 - 0.700536 s_1_4  + 0.700536 s_1_7  + 2000.000000 r_1_2_4 > -999.877878
s_2_2 + s_2_4 + 1000 r_2_2_4 >= 2
- s_2_2 - s_2_4 - 1000 r_2_2_4 >= -1001
t_2_2 - t_2_4 - 1000.000000 u_2_2_4 - 0.726325 s_2_4  + 0.726325 s_2_7  + 2000.000000 r_2_2_4 > -998.466065
s_1_2 + s_1_5 + 1000 r_1_2_5 >= 2
- s_1_2 - s_1_5 - 1000 r_1_2_5 >= -1001
t_1_2 - t_1_5 - 1000.000000 u_1_2_5 - 0.700536 s_1_5  + 0.700536 s_1_8  + 2000.000000 r_1_2_5 > -999.567900
s_2_2 + s_2_5 + 1000 r_2_2_5 >= 2
- s_2_2 - s_2_5 - 1000 r_2_2_5 >= -1001
t_2_2 - t_2_5 - 1000.000000 u_2_2_5 - 0.726325 s_2_5  + 0.726325 s_2_8  + 2000.000000 r_2_2_5 > -996.114083
t_1_6 - t_1_2 - 1000.700536 s_1_2  + 0.700536 s_1_7  > -999.031100
t_1_6 - t_2_2 - 1000.726325 s_2_2  + 0.726325 s_2_7  > -991.965682
t_2_6 - t_1_2 - 1000.700536 s_1_2  + 0.700536 s_1_7  > -999.031100
t_2_6 - t_2_2 - 1000.726325 s_2_2  + 0.726325 s_2_7  > -991.965682
t_1_2 - t_1_7 - 1000.000000 s_1_7  > -996.930600
t_1_2 - t_2_7 - 1000.000000 s_2_7  > -985.913597
t_2_2 - t_1_7 - 1000.000000 s_1_7  > -996.930600
t_2_2 - t_2_7 - 1000.000000 s_2_7  > -985.913597
s_1_2 + s_1_8 + 1000 r_1_2_8 >= 2
- s_1_2 - s_1_8 - 1000 r_1_2_8 >= -1001
t_1_2 - t_1_8 - 1000.000000 u_1_2_8 - 0.000000 s_1_8  + 2000.000000 r_1_2_8 > -998.981444
s_2_2 + s_2_8 + 1000 r_2_2_8 >= 2
- s_2_2 - s_2_8 - 1000 r_2_2_8 >= -1001
t_2_2 - t_2_8 - 1000.000000 u_2_2_8 - 0.000000 s_2_8  + 2000.000000 r_2_2_8 > -997.426619
s_1_3 + s_1_1 + 1000 r_1_1_3 >= 2
- s_1_3 - s_1_1 - 1000 r_1_1_3 >= -1001
t_1_3 - t_1_1 + 1000.000000 u_1_1_3 - 1.401072 s_1_1  + 0.700536 s_1_8  + 0.700536 s_1_7  + 2000.000000 r_1_1_3 > 0.987894
s_2_3 + s_2_1 + 1000 r_2_1_3 >= 2
- s_2_3 - s_2_1 - 1000 r_2_1_3 >= -1001
t_2_3 - t_2_1 + 1000.000000 u_2_1_3 - 1.452650 s_2_1  + 0.726325 s_2_8  + 0.726325 s_2_7  + 2000.000000 r_2_1_3 > 7.795036
s_1_3 + s_1_2 + 1000 r_1_2_3 >= 2
- s_1_3 - s_1_2 - 1000 r_1_2_3 >= -1001
t_1_3 - t_1_2 + 1000.000000 u_1_2_3 - 0.700536 s_1_2  + 0.700536 s_1_7  + 2000.000000 r_1_2_3 > 0.968900
s_2_3 + s_2_2 + 1000 r_2_2_3 >= 2
- s_2_3 - s_2_2 - 1000 r_2_2_3 >= -1001
t_2_3 - t_2_2 + 1000.000000 u_2_2_3 - 0.726325 s_2_2  + 0.726325 s_2_7  + 2000.000000 r_2_2_3 > 8.034318
s_1_3 + s_1_4 + 1000 r_1_3_4 >= 2
- s_1_3 - s_1_4 - 1000 r_1_3_4 >= -1001
t_1_3 - t_1_4 - 1000.000000 u_1_3_4 - 0.700536 s_1_4  + 0.700536 s_1_7  + 2000.000000 r_1_3_4 > -999.877878
s_2_3 + s_2_4 + 1000 r_2_3_4 >= 2
- s_2_3 - s_2_4 - 1000 r_2_3_4 >= -1001
t_2_3 - t_2_4 - 1000.000000 u_2_3_4 - 0.726325 s_2_4  + 0.726325 s_2_7  + 2000.000000 r_2_3_4 > -998.466065
s_1_3 + s_1_5 + 1000 r_1_3_5 >= 2
- s_1_3 - s_1_5 - 1000 r_1_3_5 >= -1001
t_1_3 - t_1_5 - 1000.000000 u_1_3_5 - 0.700536 s_1_5  + 0.700536 s_1_8  + 2000.000000 r_1_3_5 > -999.567900
s_2_3 + s_2_5 + 1000 r_2_3_5 >= 2
- s_2_3 - s_2_5 - 1000 r_2_3_5 >= -1001
t_2_3 - t_2_5 - 1000.000000 u_2_3_5 - 0.726325 s_2_5  + 0.726325 s_2_8  + 2000.000000 r_2_3_5 > -996.114083
t_1_6 - t_1_3 - 1001.401072 s_1_3  + 0.700536 s_1_8  + 0.700536 s_1_7  > -999.909600
t_1_6 - t_2_3 - 1001.452650 s_2_3  + 0.726325 s_2_8  + 0.726325 s_2_7  > -998.871938
t_2_6 - t_1_3 - 1001.401072 s_1_3  + 0.700536 s_1_8  + 0.700536 s_1_7  > -999.909600
t_2_6 - t_2_3 - 1001.452650 s_2_3  + 0.726325 s_2_8  + 0.726325 s_2_7  > -998.871938
t_1_3 - t_1_7 - 1000.000000 s_1_7  > -996.930600
t_1_3 - t_2_7 - 1000.000000 s_2_7  > -985.913597
t_2_3 - t_1_7 - 1000.000000 s_1_7  > -996.930600
t_2_3 - t_2_7 - 1000.000000 s_2_7  > -985.913597
t_1_3 - t_1_8 - 1000.000000 s_1_8  > -998.981444
t_1_3 - t_2_8 - 1000.000000 s_2_8  > -997.426619
t_2_3 - t_1_8 - 1000.000000 s_1_8  > -998.981444
t_2_3 - t_2_8 - 1000.000000 s_2_8  > -997.426619
s_1_4 + s_1_1 + 1000 r_1_1_4 >= 2
- s_1_4 - s_1_1 - 1000 r_1_1_4 >= -1001
t_1_4 - t_1_1 + 1000.000000 u_1_1_4 - 1.401072 s_1_1  + 0.700536 s_1_8  + 0.700536 s_1_7  + 2000.000000 r_1_1_4 > 0.987894
s_2_4 + s_2_1 + 1000 r_2_1_4 >= 2
- s_2_4 - s_2_1 - 1000 r_2_1_4 >= -1001
t_2_4 - t_2_1 + 1000.000000 u_2_1_4 - 1.452650 s_2_1  + 0.726325 s_2_8  + 0.726325 s_2_7  + 2000.000000 r_2_1_4 > 7.795036
s_1_4 + s_1_2 + 1000 r_1_2_4 >= 2
- s_1_4 - s_1_2 - 1000 r_1_2_4 >= -1001
t_1_4 - t_1_2 + 1000.000000 u_1_2_4 - 0.700536 s_1_2  + 0.700536 s_1_7  + 2000.000000 r_1_2_4 > 0.968900
s_2_4 + s_2_2 + 1000 r_2_2_4 >= 2
- s_2_4 - s_2_2 - 1000 r_2_2_4 >= -1001
t_2_4 - t_2_2 + 1000.000000 u_2_2_4 - 0.726325 s_2_2  + 0.726325 s_2_7  + 2000.000000 r_2_2_4 > 8.034318
s_1_4 + s_1_3 + 1000 r_1_3_4 >= 2
- s_1_4 - s_1_3 - 1000 r_1_3_4 >= -1001
t_1_4 - t_1_3 + 1000.000000 u_1_3_4 - 1.401072 s_1_3  + 0.700536 s_1_8  + 0.700536 s_1_7  + 2000.000000 r_1_3_4 > 0.090400
s_2_4 + s_2_3 + 1000 r_2_3_4 >= 2
- s_2_4 - s_2_3 - 1000 r_2_3_4 >= -1001
t_2_4 - t_2_3 + 1000.000000 u_2_3_4 - 1.452650 s_2_3  + 0.726325 s_2_8  + 0.726325 s_2_7  + 2000.000000 r_2_3_4 > 1.128062
s_1_4 + s_1_5 + 1000 r_1_4_5 >= 2
- s_1_4 - s_1_5 - 1000 r_1_4_5 >= -1001
t_1_4 - t_1_5 - 1000.000000 u_1_4_5 - 0.700536 s_1_5  + 0.700536 s_1_8  + 2000.000000 r_1_4_5 > -999.567900
s_2_4 + s_2_5 + 1000 r_2_4_5 >= 2
- s_2_4 - s_2_5 - 1000 r_2_4_5 >= -1001
t_2_4 - t_2_5 - 1000.000000 u_2_4_5 - 0.726325 s_2_5  + 0.726325 s_2_8  + 2000.000000 r_2_4_5 > -996.114083
t_1_6 - t_1_4 - 1000.700536 s_1_4  + 0.700536 s_1_7  > -999.877878
t_1_6 - t_2_4 - 1000.726325 s_2_4  + 0.726325 s_2_7  > -998.466065
t_2_6 - t_1_4 - 1000.700536 s_1_4  + 0.700536 s_1_7  > -999.877878
t_2_6 - t_2_4 - 1000.726325 s_2_4  + 0.726325 s_2_7  > -998.466065
t_1_4 - t_1_7 - 1000.000000 s_1_7  > -996.930600
t_1_4 - t_2_7 - 1000.000000 s_2_7  > -985.913597
t_2_4 - t_1_7 - 1000.000000 s_1_7  > -996.930600
t_2_4 - t_2_7 - 1000.000000 s_2_7  > -985.913597
s_1_4 + s_1_8 + 1000 r_1_4_8 >= 2
- s_1_4 - s_1_8 - 1000 r_1_4_8 >= -1001
t_1_4 - t_1_8 - 1000.000000 u_1_4_8 - 0.000000 s_1_8  + 2000.000000 r_1_4_8 > -998.981444
s_2_4 + s_2_8 + 1000 r_2_4_8 >= 2
- s_2_4 - s_2_8 - 1000 r_2_4_8 >= -1001
t_2_4 - t_2_8 - 1000.000000 u_2_4_8 - 0.000000 s_2_8  + 2000.000000 r_2_4_8 > -997.426619
s_1_5 + s_1_1 + 1000 r_1_1_5 >= 2
- s_1_5 - s_1_1 - 1000 r_1_1_5 >= -1001
t_1_5 - t_1_1 + 1000.000000 u_1_1_5 - 1.401072 s_1_1  + 0.700536 s_1_8  + 0.700536 s_1_7  + 2000.000000 r_1_1_5 > 0.987894
s_2_5 + s_2_1 + 1000 r_2_1_5 >= 2
- s_2_5 - s_2_1 - 1000 r_2_1_5 >= -1001
t_2_5 - t_2_1 + 1000.000000 u_2_1_5 - 1.452650 s_2_1  + 0.726325 s_2_8  + 0.726325 s_2_7  + 2000.000000 r_2_1_5 > 7.795036
s_1_5 + s_1_2 + 1000 r_1_2_5 >= 2
- s_1_5 - s_1_2 - 1000 r_1_2_5 >= -1001
t_1_5 - t_1_2 + 1000.000000 u_1_2_5 - 0.700536 s_1_2  + 0.700536 s_1_7  + 2000.000000 r_1_2_5 > 0.968900
s_2_5 + s_2_2 + 1000 r_2_2_5 >= 2
- s_2_5 - s_2_2 - 1000 r_2_2_5 >= -1001
t_2_5 - t_2_2 + 1000.000000 u_2_2_5 - 0.726325 s_2_2  + 0.726325 s_2_7  + 2000.000000 r_2_2_5 > 8.034318
s_1_5 + s_1_3 + 1000 r_1_3_5 >= 2
- s_1_5 - s_1_3 - 1000 r_1_3_5 >= -1001
t_1_5 - t_1_3 + 1000.000000 u_1_3_5 - 1.401072 s_1_3  + 0.700536 s_1_8  + 0.700536 s_1_7  + 2000.000000 r_1_3_5 > 0.090400
s_2_5 + s_2_3 + 1000 r_2_3_5 >= 2
- s_2_5 - s_2_3 - 1000 r_2_3_5 >= -1001
t_2_5 - t_2_3 + 1000.000000 u_2_3_5 - 1.452650 s_2_3  + 0.726325 s_2_8  + 0.726325 s_2_7  + 2000.000000 r_2_3_5 > 1.128062
s_1_5 + s_1_4 + 1000 r_1_4_5 >= 2
- s_1_5 - s_1_4 - 1000 r_1_4_5 >= -1001
t_1_5 - t_1_4 + 1000.000000 u_1_4_5 - 0.700536 s_1_4  + 0.700536 s_1_7  + 2000.000000 r_1_4_5 > 0.122122
s_2_5 + s_2_4 + 1000 r_2_4_5 >= 2
- s_2_5 - s_2_4 - 1000 r_2_4_5 >= -1001
t_2_5 - t_2_4 + 1000.000000 u_2_4_5 - 0.726325 s_2_4  + 0.726325 s_2_7  + 2000.000000 r_2_4_5 > 1.533935
t_1_6 - t_1_5 - 1000.700536 s_1_5  + 0.700536 s_1_8  > -999.567900
t_1_6 - t_2_5 - 1000.726325 s_2_5  + 0.726325 s_2_8  > -996.114083
t_2_6 - t_1_5 - 1000.700536 s_1_5  + 0.700536 s_1_8  > -999.567900
t_2_6 - t_2_5 - 1000.726325 s_2_5  + 0.726325 s_2_8  > -996.114083
s_1_5 + s_1_7 + 1000 r_1_5_7 >= 2
- s_1_5 - s_1_7 - 1000 r_1_5_7 >= -1001
t_1_5 - t_1_7 - 1000.000000 u_1_5_7 - 0.000000 s_1_7  + 2000.000000 r_1_5_7 > -996.930600
s_2_5 + s_2_7 + 1000 r_2_5_7 >= 2
- s_2_5 - s_2_7 - 1000 r_2_5_7 >= -1001
t_2_5 - t_2_7 - 1000.000000 u_2_5_7 - 0.000000 s_2_7  + 2000.000000 r_2_5_7 > -985.913597
t_1_5 - t_1_8 - 1000.000000 s_1_8  > -998.981444
t_1_5 - t_2_8 - 1000.000000 s_2_8  > -997.426619
t_2_5 - t_1_8 - 1000.000000 s_1_8  > -998.981444
t_2_5 - t_2_8 - 1000.000000 s_2_8  > -997.426619
t_1_6 - t_1_7 - 1000.000000 s_1_7  > -996.930600
t_1_6 - t_2_7 - 1000.000000 s_2_7  > -985.913597
t_2_6 - t_1_7 - 1000.000000 s_1_7  > -996.930600
t_2_6 - t_2_7 - 1000.000000 s_2_7  > -985.913597
s_1_7 + s_1_5 + 1000 r_1_5_7 >= 2
- s_1_7 - s_1_5 - 1000 r_1_5_7 >= -1001
t_1_7 - t_1_5 + 1000.000000 u_1_5_7 - 0.700536 s_1_5  + 0.700536 s_1_8  + 2000.000000 r_1_5_7 > 0.432100
s_2_7 + s_2_5 + 1000 r_2_5_7 >= 2
- s_2_7 - s_2_5 - 1000 r_2_5_7 >= -1001
t_2_7 - t_2_5 + 1000.000000 u_2_5_7 - 0.726325 s_2_5  + 0.726325 s_2_8  + 2000.000000 r_2_5_7 > 3.885917
s_1_7 + s_1_8 + 1000 r_1_7_8 >= 2
- s_1_7 - s_1_8 - 1000 r_1_7_8 >= -1001
t_1_7 - t_1_8 - 1000.000000 u_1_7_8 - 0.000000 s_1_8  + 2000.000000 r_1_7_8 > -998.981444
s_2_7 + s_2_8 + 1000 r_2_7_8 >= 2
- s_2_7 - s_2_8 - 1000 r_2_7_8 >= -1001
t_2_7 - t_2_8 - 1000.000000 u_2_7_8 - 0.000000 s_2_8  + 2000.000000 r_2_7_8 > -997.426619
s_1_8 + s_1_2 + 1000 r_1_2_8 >= 2
- s_1_8 - s_1_2 - 1000 r_1_2_8 >= -1001
t_1_8 - t_1_2 + 1000.000000 u_1_2_8 - 0.700536 s_1_2  + 0.700536 s_1_7  + 2000.000000 r_1_2_8 > 0.968900
s_2_8 + s_2_2 + 1000 r_2_2_8 >= 2
- s_2_8 - s_2_2 - 1000 r_2_2_8 >= -1001
t_2_8 - t_2_2 + 1000.000000 u_2_2_8 - 0.726325 s_2_2  + 0.726325 s_2_7  + 2000.000000 r_2_2_8 > 8.034318
s_1_8 + s_1_4 + 1000 r_1_4_8 >= 2
- s_1_8 - s_1_4 - 1000 r_1_4_8 >= -1001
t_1_8 - t_1_4 + 1000.000000 u_1_4_8 - 0.700536 s_1_4  + 0.700536 s_1_7  + 2000.000000 r_1_4_8 > 0.122122
s_2_8 + s_2_4 + 1000 r_2_4_8 >= 2
- s_2_8 - s_2_4 - 1000 r_2_4_8 >= -1001
t_2_8 - t_2_4 + 1000.000000 u_2_4_8 - 0.726325 s_2_4  + 0.726325 s_2_7  + 2000.000000 r_2_4_8 > 1.533935
s_1_8 + s_1_7 + 1000 r_1_7_8 >= 2
- s_1_8 - s_1_7 - 1000 r_1_7_8 >= -1001
t_1_8 - t_1_7 + 1000.000000 u_1_7_8 - 0.000000 s_1_7  + 2000.000000 r_1_7_8 > 3.069400
s_2_8 + s_2_7 + 1000 r_2_7_8 >= 2
- s_2_8 - s_2_7 - 1000 r_2_7_8 >= -1001
t_2_8 - t_2_7 + 1000.000000 u_2_7_8 - 0.000000 s_2_7  + 2000.000000 r_2_7_8 > 14.086403
Binary
s_1_1
s_2_1
s_1_2
s_2_2
s_1_3
s_2_3
s_1_4
s_2_4
s_1_5
s_2_5
s_1_6
s_2_6
s_1_7
s_2_7
s_1_8
s_2_8
u_1_1_2
r_1_1_2
u_2_1_2
r_2_1_2
u_1_1_3
r_1_1_3
u_2_1_3
r_2_1_3
u_1_1_4
r_1_1_4
u_2_1_4
r_2_1_4
u_1_1_5
r_1_1_5
u_2_1_5
r_2_1_5
u_1_2_3
r_1_2_3
u_2_2_3
r_2_2_3
u_1_2_4
r_1_2_4
u_2_2_4
r_2_2_4
u_1_2_5
r_1_2_5
u_2_2_5
r_2_2_5
u_1_2_8
r_1_2_8
u_2_2_8
r_2_2_8
u_1_3_4
r_1_3_4
u_2_3_4
r_2_3_4
u_1_3_5
r_1_3_5
u_2_3_5
r_2_3_5
u_1_4_5
r_1_4_5
u_2_4_5
r_2_4_5
u_1_4_8
r_1_4_8
u_2_4_8
r_2_4_8
u_1_5_7
r_1_5_7
u_2_5_7
r_2_5_7
u_1_7_8
r_1_7_8
u_2_7_8
r_2_7_8

End
